<number of tasks>
50

<cycle time>
1000

<order strength>
0.195


<task times>
1 584
2 720
3 455
4 629
5 441
6 623
7 622
8 627
9 385
10 462
11 593
12 374
13 564
14 373
15 789
16 580
17 570
18 486
19 635
20 588
21 350
22 487
23 359
24 708
25 617
26 537
27 487
28 347
29 398
30 583
31 449
32 580
33 449
34 531
35 547
36 353
37 525
38 371
39 406
40 521
41 635
42 438
43 396
44 550
45 635
46 626
47 510
48 349
49 385
50 600

<precedence relations>
1,11
2,9
2,10
3,13
6,13
6,14
7,41
8,12
9,15
10,16
11,17
12,18
13,20
14,19
14,47
15,21
16,27
17,24
18,25
19,22
19,23
19,28
20,26
20,28
20,41
21,29
22,31
23,32
24,33
25,34
26,30
26,36
27,48
28,35
28,37
28,45
28,46
29,40
30,38
31,41
32,40
33,39
34,45
36,50
38,42
39,43
40,45
40,46
41,44
42,47
43,47
44,49
44,50
46,48

<end>
